% seed = 5748413

mint = 62;
% maxt = 209;

nActs = 42;
dur = [0,3,10,3,3,8,1,9,4,1,6,8,3,4,5,2,9,2,9,4,9,7,5,7,6,3,1,9,9,8,4,4,8,3,4,7,5,4,10,1,1,0];

nSkills = 4;
sreq = [| 0,0,0,0,
	| 0,0,5,3,
	| 0,3,3,0,
	| 3,0,5,0,
	| 3,0,2,0,
	| 4,0,0,4,
	| 3,0,0,5,
	| 0,3,5,0,
	| 0,7,0,4,
	| 0,2,5,0,
	| 2,0,0,4,
	| 4,4,0,0,
	| 4,0,4,0,
	| 0,0,3,3,
	| 3,0,5,0,
	| 0,6,0,3,
	| 5,5,0,0,
	| 3,6,0,0,
	| 2,0,6,0,
	| 0,4,5,0,
	| 3,3,0,0,
	| 0,3,3,0,
	| 0,5,0,4,
	| 0,0,5,2,
	| 4,0,0,4,
	| 0,5,0,5,
	| 0,6,2,0,
	| 6,3,0,0,
	| 0,3,3,0,
	| 0,0,5,5,
	| 4,0,0,1,
	| 0,3,3,0,
	| 0,5,0,7,
	| 3,0,4,0,
	| 3,0,6,0,
	| 0,2,2,0,
	| 4,0,0,6,
	| 4,0,0,5,
	| 4,0,5,0,
	| 5,0,6,0,
	| 0,7,2,0,
	| 0,0,0,0, |];

nResources = 20;
mastery = [| true,true,false,true,
	| false,true,true,true,
	| false,true,false,false,
	| false,false,false,true,
	| true,false,true,false,
	| false,true,false,false,
	| true,true,false,true,
	| false,true,true,true,
	| true,true,false,false,
	| false,true,true,false,
	| true,false,true,true,
	| false,false,true,false,
	| false,true,false,true,
	| false,true,true,false,
	| false,true,true,true,
	| false,false,true,false,
	| true,true,true,false,
	| true,true,true,false,
	| false,true,true,true,
	| true,true,true,false, |];

nPrecs = 73;
pred = [1,1,1,2,3,3,4,4,4,5,5,6,6,6,7,7,8,8,9,9,9,10,10,10,11,11,11,12,13,13,13,14,14,14,15,16,16,17,18,18,18,19,19,20,20,21,21,22,23,23,23,24,25,26,26,26,27,27,28,29,29,30,31,32,33,34,35,36,37,38,39,40,41];
succ = [2,3,4,14,21,7,5,6,8,18,22,9,20,7,29,40,10,22,11,13,16,29,21,16,17,12,15,33,25,33,36,17,18,27,31,19,24,25,26,20,31,26,37,34,23,41,30,28,25,33,24,32,41,34,35,30,31,39,40,34,32,32,40,36,41,36,39,38,38,39,42,42,42];

nUnrels = 465;
unpred = [2,2,2,2,2,2,2,2,2,2,2,2,2,2,2,2,2,2,2,3,3,3,3,3,3,3,3,3,3,3,3,3,3,3,3,3,3,3,3,3,3,3,3,3,3,3,4,4,5,5,5,5,5,5,5,5,5,5,5,5,5,5,5,5,5,6,6,6,6,6,6,6,6,7,7,7,7,7,7,7,7,7,7,7,7,7,7,7,7,7,7,7,7,7,7,7,7,7,7,7,8,8,8,8,8,8,8,8,8,8,8,8,8,8,9,9,9,9,9,9,9,9,9,9,10,10,10,10,10,10,10,10,10,10,10,10,10,10,10,10,11,11,11,11,11,11,11,11,11,11,11,11,11,11,11,11,11,11,11,11,11,11,12,12,12,12,12,12,12,12,12,12,12,12,12,12,12,12,12,12,12,12,12,12,12,12,12,12,12,13,13,13,13,13,13,13,13,13,13,13,13,13,13,13,13,13,13,13,13,13,13,14,14,14,14,14,14,14,14,15,15,15,15,15,15,15,15,15,15,15,15,15,15,15,15,15,15,15,15,15,15,15,15,16,16,16,16,16,16,16,16,16,16,16,16,16,16,17,17,17,17,17,17,17,17,17,17,17,17,17,17,17,17,17,17,17,17,17,17,18,18,18,18,18,18,18,19,19,19,19,19,19,19,19,19,19,19,19,19,20,20,20,20,20,20,20,20,20,20,20,21,21,21,21,21,21,21,21,21,21,21,21,21,21,22,22,22,22,22,22,22,22,22,22,22,22,22,22,22,22,22,23,23,23,23,23,23,23,23,23,23,24,24,24,24,24,24,24,24,24,24,24,24,24,25,25,25,25,25,25,25,25,25,25,25,25,25,25,25,26,26,26,26,26,26,26,26,27,27,27,27,27,27,27,27,27,27,27,28,28,28,28,28,28,28,28,28,28,28,28,29,29,29,29,29,29,29,30,30,30,30,30,30,30,31,31,31,31,31,31,31,31,31,32,32,32,32,32,32,33,33,33,33,33,33,33,34,34,34,34,35,35,35,35,35,36,36,36,37,37,38,38,39,39,40];
unsucc = [3,4,5,6,7,8,9,10,11,12,13,15,16,19,21,22,28,29,37,4,5,6,8,9,10,11,12,13,14,15,16,17,18,19,20,22,23,24,25,26,27,28,31,33,35,37,14,27,6,7,8,9,10,11,12,13,14,15,16,17,19,21,27,29,37,8,10,14,18,21,22,27,28,8,9,10,11,12,13,14,15,16,17,18,19,20,21,22,23,24,25,26,27,28,30,31,33,35,37,41,9,11,12,13,14,15,17,18,20,23,25,27,31,33,10,14,18,20,21,22,23,27,28,29,11,12,13,14,15,17,18,20,22,23,25,27,28,31,33,40,13,14,16,18,19,20,21,22,23,24,26,27,28,29,30,32,34,35,36,37,38,39,13,14,15,16,17,18,19,20,21,22,23,24,25,26,27,28,29,30,31,32,34,35,36,37,38,39,40,14,15,16,17,18,19,20,21,22,23,24,26,27,28,29,30,31,32,34,35,37,40,15,16,19,21,22,28,29,37,16,17,18,19,20,21,22,23,24,25,26,27,28,29,30,32,33,34,35,36,37,38,39,41,17,18,20,21,22,23,25,27,28,29,31,33,40,41,18,19,20,21,22,23,24,26,27,28,29,30,31,32,33,34,35,36,37,38,39,40,19,21,22,27,28,29,37,20,21,22,23,24,25,27,28,29,31,33,40,41,21,22,26,27,28,29,30,31,35,37,40,22,23,24,25,26,27,28,29,31,33,34,35,37,40,23,24,25,26,27,29,30,31,32,33,34,35,36,37,38,39,41,26,27,28,29,30,31,34,35,37,40,25,26,27,28,29,30,31,33,34,35,37,40,41,26,27,28,29,30,31,32,33,34,35,36,37,38,39,40,27,28,29,31,33,37,40,41,28,29,30,32,33,34,35,36,37,38,41,29,30,31,32,33,34,35,36,37,38,39,41,30,31,33,35,37,40,41,31,33,34,35,37,40,41,32,33,34,35,36,37,38,39,41,33,34,35,37,40,41,34,35,36,37,38,39,40,35,37,40,41,36,37,38,40,41,37,40,41,40,41,40,41,40,41,41];

USEFUL_RES = [{},
	{1,2,4,5,7,8,10,11,12,13,14,15,16,17,18,19,20},
	{1,2,3,5,6,7,8,9,10,11,12,13,14,15,16,17,18,19,20},
	{1,2,5,7,8,9,10,11,12,14,15,16,17,18,19,20},
	{1,2,5,7,8,9,10,11,12,14,15,16,17,18,19,20},
	{1,2,4,5,7,8,9,11,13,15,17,18,19,20},
	{1,2,4,5,7,8,9,11,13,15,17,18,19,20},
	{1,2,3,5,6,7,8,9,10,11,12,13,14,15,16,17,18,19,20},
	{1,2,3,4,6,7,8,9,10,11,13,14,15,17,18,19,20},
	{1,2,3,5,6,7,8,9,10,11,12,13,14,15,16,17,18,19,20},
	{1,2,4,5,7,8,9,11,13,15,17,18,19,20},
	{1,2,3,5,6,7,8,9,10,11,13,14,15,17,18,19,20},
	{1,2,5,7,8,9,10,11,12,14,15,16,17,18,19,20},
	{1,2,4,5,7,8,10,11,12,13,14,15,16,17,18,19,20},
	{1,2,5,7,8,9,10,11,12,14,15,16,17,18,19,20},
	{1,2,3,4,6,7,8,9,10,11,13,14,15,17,18,19,20},
	{1,2,3,5,6,7,8,9,10,11,13,14,15,17,18,19,20},
	{1,2,3,5,6,7,8,9,10,11,13,14,15,17,18,19,20},
	{1,2,5,7,8,9,10,11,12,14,15,16,17,18,19,20},
	{1,2,3,5,6,7,8,9,10,11,12,13,14,15,16,17,18,19,20},
	{1,2,3,5,6,7,8,9,10,11,13,14,15,17,18,19,20},
	{1,2,3,5,6,7,8,9,10,11,12,13,14,15,16,17,18,19,20},
	{1,2,3,4,6,7,8,9,10,11,13,14,15,17,18,19,20},
	{1,2,4,5,7,8,10,11,12,13,14,15,16,17,18,19,20},
	{1,2,4,5,7,8,9,11,13,15,17,18,19,20},
	{1,2,3,4,6,7,8,9,10,11,13,14,15,17,18,19,20},
	{1,2,3,5,6,7,8,9,10,11,12,13,14,15,16,17,18,19,20},
	{1,2,3,5,6,7,8,9,10,11,13,14,15,17,18,19,20},
	{1,2,3,5,6,7,8,9,10,11,12,13,14,15,16,17,18,19,20},
	{1,2,4,5,7,8,10,11,12,13,14,15,16,17,18,19,20},
	{1,2,4,5,7,8,9,11,13,15,17,18,19,20},
	{1,2,3,5,6,7,8,9,10,11,12,13,14,15,16,17,18,19,20},
	{1,2,3,4,6,7,8,9,10,11,13,14,15,17,18,19,20},
	{1,2,5,7,8,9,10,11,12,14,15,16,17,18,19,20},
	{1,2,5,7,8,9,10,11,12,14,15,16,17,18,19,20},
	{1,2,3,5,6,7,8,9,10,11,12,13,14,15,16,17,18,19,20},
	{1,2,4,5,7,8,9,11,13,15,17,18,19,20},
	{1,2,4,5,7,8,9,11,13,15,17,18,19,20},
	{1,2,5,7,8,9,10,11,12,14,15,16,17,18,19,20},
	{1,2,5,7,8,9,10,11,12,14,15,16,17,18,19,20},
	{1,2,3,5,6,7,8,9,10,11,12,13,14,15,16,17,18,19,20},
	{}];

POTENTIAL_ACT = [{2,3,4,5,6,7,8,9,10,11,12,13,14,15,16,17,18,19,20,21,22,23,24,25,26,27,28,29,30,31,32,33,34,35,36,37,38,39,40,41},
	{2,3,4,5,6,7,8,9,10,11,12,13,14,15,16,17,18,19,20,21,22,23,24,25,26,27,28,29,30,31,32,33,34,35,36,37,38,39,40,41},
	{3,8,9,10,12,16,17,18,20,21,22,23,26,27,28,29,32,33,36,41},
	{2,6,7,9,11,14,16,23,24,25,26,30,31,33,37,38},
	{2,3,4,5,6,7,8,10,11,12,13,14,15,17,18,19,20,21,22,24,25,27,28,29,30,31,32,34,35,36,37,38,39,40,41},
	{3,8,9,10,12,16,17,18,20,21,22,23,26,27,28,29,32,33,36,41},
	{2,3,4,5,6,7,8,9,10,11,12,13,14,15,16,17,18,19,20,21,22,23,24,25,26,27,28,29,30,31,32,33,34,35,36,37,38,39,40,41},
	{2,3,4,5,6,7,8,9,10,11,12,13,14,15,16,17,18,19,20,21,22,23,24,25,26,27,28,29,30,31,32,33,34,35,36,37,38,39,40,41},
	{3,4,5,6,7,8,9,10,11,12,13,15,16,17,18,19,20,21,22,23,25,26,27,28,29,31,32,33,34,35,36,37,38,39,40,41},
	{2,3,4,5,8,9,10,12,13,14,15,16,17,18,19,20,21,22,23,24,26,27,28,29,30,32,33,34,35,36,39,40,41},
	{2,3,4,5,6,7,8,9,10,11,12,13,14,15,16,17,18,19,20,21,22,23,24,25,26,27,28,29,30,31,32,33,34,35,36,37,38,39,40,41},
	{2,3,4,5,8,10,13,14,15,19,20,22,24,27,29,30,32,34,35,36,39,40,41},
	{2,3,6,7,8,9,10,11,12,14,16,17,18,20,21,22,23,24,25,26,27,28,29,30,31,32,33,36,37,38,41},
	{2,3,4,5,8,9,10,12,13,14,15,16,17,18,19,20,21,22,23,24,26,27,28,29,30,32,33,34,35,36,39,40,41},
	{2,3,4,5,6,7,8,9,10,11,12,13,14,15,16,17,18,19,20,21,22,23,24,25,26,27,28,29,30,31,32,33,34,35,36,37,38,39,40,41},
	{2,3,4,5,8,10,13,14,15,19,20,22,24,27,29,30,32,34,35,36,39,40,41},
	{2,3,4,5,6,7,8,9,10,11,12,13,14,15,16,17,18,19,20,21,22,23,24,25,26,27,28,29,30,31,32,33,34,35,36,37,38,39,40,41},
	{2,3,4,5,6,7,8,9,10,11,12,13,14,15,16,17,18,19,20,21,22,23,24,25,26,27,28,29,30,31,32,33,34,35,36,37,38,39,40,41},
	{2,3,4,5,6,7,8,9,10,11,12,13,14,15,16,17,18,19,20,21,22,23,24,25,26,27,28,29,30,31,32,33,34,35,36,37,38,39,40,41},
	{2,3,4,5,6,7,8,9,10,11,12,13,14,15,16,17,18,19,20,21,22,23,24,25,26,27,28,29,30,31,32,33,34,35,36,37,38,39,40,41}];
